Star-Searcher/search_planner/search_planner/utils/lkh_tsp_solver/resource/single.tsp
NAME : single
TYPE : ATSP
DIMENSION : 4
EDGE_WEIGHT_TYPE : EXPLICIT
EDGE_WEIGHT_FORMAT : FULL_MATRIX
EDGE_WEIGHT_SECTION
0 106 125 6553600 
6553600 0 168 336 
6553600 168 0 333 
0 6553600 6553600 0 
EOF