Star-Searcher/search_planner/search_planner/utils/lkh_tsp_solver/resource/single.txt
NAME : single.607.tour
COMMENT : Length = 607
COMMENT : Found by LKH [Keld Helsgaun] Wed Oct  9 15:32:00 2024
TYPE : TOUR
DIMENSION : 4
TOUR_SECTION
1
2
3
4
-1
EOF
